# Solution for model GasLib-40
# Objective value = 6.9356689394858222e+01
loadshed[innode_1] 0
loadshed[innode_2] 0
loadshed[innode_3] 0
loadshed[innode_4] 0
loadshed[innode_5] 0
loadshed[innode_6] 0
loadshed[innode_7] 0
loadshed[innode_8] 0
loadshed[source_1] -7.4400496441051622e-04
loadshed[source_2] 1.5029052936785892e-01
loadshed[source_3] 2.8916919151392217e-01
loadshed[sink_1] 4.6094541833869340e-01
loadshed[sink_2] 0
loadshed[sink_3] 0
loadshed[sink_4] 0
loadshed[sink_5] 8.3860105364673743e-01
loadshed[sink_6] 0
loadshed[sink_7] 0
loadshed[sink_8] 0
loadshed[sink_9] 0
loadshed[sink_10] 0
loadshed[sink_11] 0
loadshed[sink_12] 1
loadshed[sink_13] 0
loadshed[sink_14] 0
loadshed[sink_15] 0
loadshed[sink_16] 0
loadshed[sink_17] 0
loadshed[sink_18] 0
loadshed[sink_19] 0
loadshed[sink_20] 0
loadshed[sink_21] 1
loadshed[sink_22] 0
loadshed[sink_23] 0
loadshed[sink_24] 9.4137211521609021e-01
loadshed[sink_25] 0
loadshed[sink_26] 0
loadshed[sink_27] 0
loadshed[sink_28] 0
loadshed[sink_29] 0
flow[source_1,sink_3] 1.5820789772926946e+02
flow[innode_1,sink_16] 1.6354166666666970e+01
flow[innode_6,sink_13] 2.1037267001008075e+00
flow[sink_13,sink_14] -1.4250439966565860e+01
flow[sink_14,sink_10] -3.0604606633232528e+01
flow[sink_25,sink_26] 0
flow[sink_26,sink_9] 9.4184977271808435e+01
flow[sink_9,sink_18] 7.7830810605141764e+01
flow[sink_26,sink_4] -1.1053914393847505e+02
flow[sink_4,sink_20] -9.7609792094886231e+01
flow[sink_18,sink_6] 6.1476643938475092e+01
flow[sink_25,innode_8] -1.2549956439593311e+02
flow[sink_6,sink_7] 1.9952522134222534e+01
flow[sink_6,sink_22] 2.5169955137585951e+01
flow[sink_7,sink_24] 9.5881019907019316e-01
flow[sink_22,sink_1] 8.8157884709192853e+00
flow[sink_24,sink_21] 0
flow[sink_21,sink_12] 0
flow[sink_7,sink_5] 2.6395452684856475e+00
flow[sink_5,sink_17] 0
flow[sink_17,sink_4] 2.9283518510255462e+01
flow[sink_17,sink_8] -4.5637685176922133e+01
flow[sink_3,sink_23] 16.3541666666697
flow[sink_8,sink_20] -61.9918518435888
flow[sink_25,sink_20] 1.7595581060514172e+02
flow[sink_25,sink_15] -6.8914139575975781e+01
flow[sink_15,sink_29] -4.9273725191796231e+01
flow[sink_29,sink_28] 1.6354166666667879e+01
flow[sink_29,sink_2] 5.2348747717512893e+01
flow[sink_2,sink_15] 3.5994581050846222e+01
flow[sink_29,innode_7] -1.3433080624264369e+02
flow[innode_4,sink_19] 4.3278358416735372e+01
flow[sink_19,innode_3] 3.8877211762343535e+01
flow[innode_4,innode_5] 6.9097081549831017e+01
flow[sink_27,innode_5] -6.9097081549831017e+01
flow[sink_27,sink_19] 5.2742914883164346e+01
flow[sink_10,sink_11] 3.2708333333333641e+01
flow[sink_10,innode_2] -40.7898948708893
flow[sink_10,innode_3] -3.8877211762343535e+01
flow[innode_6,sink_25] -2.1037267001008075e+00
flow[sink_11,innode_1] 1.6354166666666970e+01
flow[sink_19,innode_2] 40.7898948708893
flow[source_3,innode_4] 1.1237543996656639e+02
flow[source_2,innode_7] 1.3433080624264369e+02
flow[sink_3,innode_8] 1.2549956439593311e+02
pressure[innode_1] 7.6952317707338892e+01
pressure[innode_2] 79.2599334266523
pressure[innode_3] 7.9173844243571239e+01
pressure[innode_4] 81.01325
pressure[innode_5] 8.0965721383809637e+01
pressure[innode_6] 75.6425592120695
pressure[innode_7] 81.01325
pressure[innode_8] 80.4844214354986
pressure[source_1] 81.01325
pressure[source_2] 81.01325
pressure[source_3] 81.01325
pressure[sink_1] 1.0132500000000002e+00
pressure[sink_2] 7.6094374314508414e+01
pressure[sink_3] 80.4844214354986
pressure[sink_4] 2.6534123764629094e+01
pressure[sink_5] 1.01325
pressure[sink_6] 2.3849168051770091e+00
pressure[sink_7] 2.1110162358886919e+00
pressure[sink_8] 2.9375271708189388e+01
pressure[sink_9] 6.8426769417627993e+00
pressure[sink_10] 7.7104019014942438e+01
pressure[sink_11] 7.6952317707338892e+01
pressure[sink_12] 1.01325
pressure[sink_13] 7.5630961718337232e+01
pressure[sink_14] 7.5656464094526484e+01
pressure[sink_15] 7.5976859940455284e+01
pressure[sink_16] 7.5930667872521212e+01
pressure[sink_17] 2.7653243282673547e+01
pressure[sink_18] 4.0265262383578131e+00
pressure[sink_19] 79.2599334266523
pressure[sink_20] 3.3695231973472680e+01
pressure[sink_21] 1.01325
pressure[sink_22] 1.5866796300163766e+00
pressure[sink_23] 8.0319703423838817e+01
pressure[sink_24] 1.01325
pressure[sink_25] 75.6425592120695
pressure[sink_26] 1.2479890916215396e+01
pressure[sink_27] 8.0392343284624317e+01
pressure[sink_28] 7.7125144899720951e+01
pressure[sink_29] 7.7420427173338140e+01
interdiction[source_1,sink_3] 0
interdiction[innode_1,sink_16] 0
interdiction[innode_6,sink_13] 0
interdiction[sink_13,sink_14] 0
interdiction[sink_14,sink_10] 0
interdiction[sink_25,sink_26] 1
interdiction[sink_26,sink_9] 0
interdiction[sink_9,sink_18] 0
interdiction[sink_26,sink_4] 0
interdiction[sink_4,sink_20] 0
interdiction[sink_18,sink_6] 0
interdiction[sink_25,innode_8] 0
interdiction[sink_6,sink_7] 0
interdiction[sink_6,sink_22] 0
interdiction[sink_7,sink_24] 0
interdiction[sink_22,sink_1] 0
interdiction[sink_24,sink_21] 0
interdiction[sink_21,sink_12] 0
interdiction[sink_7,sink_5] 0
interdiction[sink_5,sink_17] 1
interdiction[sink_17,sink_4] 0
interdiction[sink_17,sink_8] 0
interdiction[sink_3,sink_23] 0
interdiction[sink_8,sink_20] 0
interdiction[sink_25,sink_20] 0
interdiction[sink_25,sink_15] 0
interdiction[sink_15,sink_29] 0
interdiction[sink_29,sink_28] 0
interdiction[sink_29,sink_2] 0
interdiction[sink_2,sink_15] 0
interdiction[sink_29,innode_7] 0
interdiction[innode_4,sink_19] 0
interdiction[sink_19,innode_3] 0
interdiction[innode_4,innode_5] 0
interdiction[sink_27,innode_5] 0
interdiction[sink_27,sink_19] 0
interdiction[sink_10,sink_11] 0
interdiction[sink_10,innode_2] 0
interdiction[sink_10,innode_3] 0
interdiction[innode_6,sink_25] 0
interdiction[sink_11,innode_1] 0
interdiction[sink_19,innode_2] 0
interdiction[source_3,innode_4] 0
interdiction[source_2,innode_7] 0
interdiction[sink_3,innode_8] 0
WCcheckFlow[source_1,sink_3] 39
WCcheckFlow[innode_1,sink_16] 1
WCcheckFlow[innode_6,sink_13] 13
WCcheckFlow[sink_13,sink_14] 12
WCcheckFlow[sink_14,sink_10] 11
WCcheckFlow[sink_25,sink_26] 0
WCcheckFlow[sink_26,sink_9] 10
WCcheckFlow[sink_9,sink_18] 9
WCcheckFlow[sink_26,sink_4] -11
WCcheckFlow[sink_4,sink_20] -14
WCcheckFlow[sink_18,sink_6] 8
WCcheckFlow[sink_25,innode_8] -36
WCcheckFlow[sink_6,sink_7] 5
WCcheckFlow[sink_6,sink_22] 2
WCcheckFlow[sink_7,sink_24] 3
WCcheckFlow[sink_22,sink_1] 1
WCcheckFlow[sink_24,sink_21] 2
WCcheckFlow[sink_21,sink_12] 1
WCcheckFlow[sink_7,sink_5] 1
WCcheckFlow[sink_5,sink_17] 0
WCcheckFlow[sink_17,sink_4] -2
WCcheckFlow[sink_17,sink_8] 1
WCcheckFlow[sink_3,sink_23] 1
WCcheckFlow[sink_8,sink_20] 0
WCcheckFlow[sink_25,sink_20] 15
WCcheckFlow[sink_25,sink_15] 6
WCcheckFlow[sink_15,sink_29] 5
WCcheckFlow[sink_29,sink_28] 1
WCcheckFlow[sink_29,sink_2] 1
WCcheckFlow[sink_2,sink_15] 0
WCcheckFlow[sink_29,innode_7] 2
WCcheckFlow[innode_4,sink_19] -4
WCcheckFlow[sink_19,innode_3] -5
WCcheckFlow[innode_4,innode_5] 2
WCcheckFlow[sink_27,innode_5] -1
WCcheckFlow[sink_27,sink_19] 0
WCcheckFlow[sink_10,sink_11] 3
WCcheckFlow[sink_10,innode_2] 1
WCcheckFlow[sink_10,innode_3] 6
WCcheckFlow[innode_6,sink_25] -14
WCcheckFlow[sink_11,innode_1] 2
WCcheckFlow[sink_19,innode_2] 0
WCcheckFlow[source_3,innode_4] -1
WCcheckFlow[source_2,innode_7] -1
WCcheckFlow[sink_3,innode_8] 37
